20
1 0 39
2 0 29
2 1 22
3 0 20
3 1 2
3 2 32
4 0 25
4 1 24
4 2 13
4 3 47
5 0 43
5 1 44
5 2 12
5 3 26
5 4 19
6 0 32
6 1 12
6 2 4
6 3 19
6 4 21
6 5 41
7 0 28
7 1 19
7 2 17
7 3 44
7 4 48
7 5 1
7 6 4
8 0 1
8 1 48
8 2 31
8 3 44
8 4 14
8 5 32
8 6 15
8 7 6
9 0 3
9 1 38
9 2 6
9 3 25
9 4 2
9 5 38
9 6 22
9 7 46
9 8 38
10 0 4
10 1 2
10 2 41
10 3 35
10 4 4
10 5 17
10 6 22
10 7 4
10 8 30
10 9 22
11 0 7
11 1 5
11 2 23
11 3 42
11 4 47
11 5 5
11 6 33
11 7 5
11 8 48
11 9 21
11 10 39
12 0 33
12 1 4
12 2 44
12 3 28
12 4 44
12 5 21
12 6 26
12 7 20
12 8 40
12 9 10
12 10 33
12 11 37
13 0 4
13 1 4
13 2 35
13 3 19
13 4 21
13 5 11
13 6 49
13 7 47
13 8 13
13 9 23
13 10 39
13 11 19
13 12 19
14 0 26
14 1 13
14 2 10
14 3 8
14 4 49
14 5 39
14 6 22
14 7 4
14 8 26
14 9 8
14 10 3
14 11 7
14 12 34
14 13 31
15 0 3
15 1 3
15 2 8
15 3 23
15 4 20
15 5 26
15 6 15
15 7 36
15 8 28
15 9 43
15 10 13
15 11 35
15 12 29
15 13 34
15 14 11
16 0 24
16 1 29
16 2 37
16 3 29
16 4 17
16 5 10
16 6 42
16 7 33
16 8 28
16 9 34
16 10 24
16 11 41
16 12 38
16 13 6
16 14 35
16 15 39
17 0 12
17 1 24
17 2 10
17 3 25
17 4 29
17 5 9
17 6 43
17 7 3
17 8 26
17 9 27
17 10 9
17 11 20
17 12 2
17 13 6
17 14 47
17 15 29
17 16 8
18 0 47
18 1 35
18 2 13
18 3 31
18 4 9
18 5 25
18 6 26
18 7 34
18 8 30
18 9 47
18 10 45
18 11 34
18 12 48
18 13 35
18 14 32
18 15 7
18 16 9
18 17 42
19 0 22
19 1 17
19 2 47
19 3 43
19 4 48
19 5 42
19 6 48
19 7 2
19 8 10
19 9 20
19 10 13
19 11 29
19 12 16
19 13 5
19 14 2
19 15 37
19 16 28
19 17 33
19 18 6
